p cnf 150 360
-126 32 138 0
32 -119 -86 0
-142 19 20 0
-3 61 -5 0
-88 77 135 0
22 84 12 0
19 69 46 0
-78 -89 88 0
-102 54 140 0
-96 -141 132 0
68 -19 -50 0
-47 -25 144 0
-136 35 115 0
-125 139 13 0
-32 -79 85 0
-126 36 -48 0
-114 62 -79 0
-126 -115 107 0
-3 127 76 0
-149 133 111 0
-78 -137 129 0
16 139 145 0
-40 -9 107 0
-29 150 -37 0
70 -52 -81 0
10 -45 148 0
-4 56 145 0
-11 -129 96 0
-121 -124 -96 0
-24 17 -39 0
43 -83 32 0
52 -93 77 0
83 -88 -2 0
-108 -117 142 0
54 17 -137 0
140 91 150 0
-81 -131 84 0
38 -19 90 0
53 62 61 0
-108 -93 -80 0
-150 -103 -44 0
-98 61 -6 0
55 -60 99 0
36 112 -9 0
-110 -30 137 0
98 -33 89 0
-123 29 -52 0
-13 118 144 0
-145 -82 122 0
-62 -113 -141 0
72 -35 31 0
81 -79 -115 0
72 -117 -137 0
118 -107 73 0
20 -31 63 0
-28 -50 -6 0
40 -87 -119 0
-12 -143 141 0
-49 135 -34 0
53 12 76 0
-18 -27 99 0
78 92 -98 0
37 -16 45 0
-46 79 -69 0
143 96 -107 0
9 -104 -62 0
136 59 -121 0
-36 28 42 0
14 125 -117 0
-144 -13 86 0
-39 -120 28 0
128 -105 40 0
93 41 -36 0
73 25 122 0
-4 -114 -22 0
-58 -14 101 0
-132 48 143 0
-8 125 -106 0
30 -23 142 0
-72 -52 -29 0
132 147 26 0
-115 10 -12 0
-39 47 144 0
-114 9 52 0
-93 48 4 0
14 21 140 0
-86 -108 21 0
-149 60 133 0
3 -72 130 0
-70 -130 -34 0
145 119 -14 0
91 45 -4 0
25 86 -16 0
-115 49 -65 0
39 -61 -29 0
124 80 53 0
-15 17 120 0
-121 -91 90 0
-98 -116 125 0
26 -52 -84 0
76 69 -74 0
13 124 71 0
110 -102 -41 0
74 117 -60 0
-82 -123 147 0
79 -77 -53 0
-50 -81 -147 0
100 -40 140 0
47 68 -71 0
21 -87 -139 0
-67 49 19 0
-87 -58 138 0
-13 -20 -119 0
54 -31 -110 0
42 74 40 0
-10 -18 -26 0
-47 -142 -104 0
3 -101 64 0
-68 -37 -126 0
-35 103 -137 0
113 64 -142 0
39 21 15 0
-49 101 47 0
127 -75 -46 0
126 99 125 0
-64 14 144 0
150 -107 122 0
-96 -13 -128 0
-30 -111 -76 0
64 113 -66 0
99 135 -17 0
-137 54 -48 0
-42 118 64 0
133 130 -7 0
55 -57 51 0
123 -45 104 0
57 110 -43 0
147 -99 50 0
63 58 -69 0
-89 86 68 0
29 79 -68 0
-136 -132 97 0
-113 -116 -101 0
-32 -31 -115 0
117 123 55 0
-40 -53 -17 0
132 -23 4 0
-44 70 -78 0
29 -82 102 0
22 106 -87 0
-124 95 85 0
-78 19 58 0
-139 -28 59 0
102 -69 -74 0
70 78 -97 0
51 61 57 0
-90 -93 -96 0
-94 -55 -35 0
140 81 -116 0
-92 -47 -57 0
36 149 40 0
-30 116 90 0
-69 -38 82 0
71 106 63 0
137 -86 93 0
-110 21 17 0
36 135 44 0
83 -1 -93 0
-144 91 -66 0
-28 -10 -18 0
-52 119 -128 0
-79 -145 -119 0
89 -95 -69 0
53 -48 -97 0
-98 125 -75 0
46 98 72 0
81 -25 -120 0
-87 129 12 0
-45 -4 131 0
-55 23 30 0
139 9 -24 0
-136 124 60 0
93 149 -60 0
39 22 144 0
-97 -90 147 0
64 82 15 0
-142 -75 -116 0
-45 -63 31 0
57 48 -121 0
-126 111 -143 0
22 123 86 0
35 -80 -13 0
-1 -16 87 0
124 107 -84 0
71 -70 86 0
-141 133 64 0
141 -132 -133 0
58 -23 -131 0
94 5 101 0
-118 -93 78 0
97 98 -5 0
11 -91 83 0
-80 -20 52 0
-143 52 -127 0
10 20 17 0
101 -2 -45 0
138 -81 39 0
-115 -79 84 0
132 123 20 0
-61 82 -112 0
-17 74 -112 0
120 -30 95 0
-77 -43 -49 0
127 120 -14 0
8 46 94 0
148 -112 -94 0
23 138 141 0
-30 -84 -45 0
131 -40 -102 0
-98 121 -74 0
66 -65 149 0
-88 -110 3 0
-131 70 8 0
10 119 -134 0
-54 92 -135 0
110 127 148 0
-23 117 31 0
21 99 -141 0
-30 26 -102 0
-52 31 -131 0
66 -134 -145 0
131 148 -55 0
71 15 20 0
-122 69 138 0
57 149 3 0
83 63 -75 0
122 -38 -10 0
91 -114 73 0
31 -148 -60 0
-124 105 31 0
-115 -12 61 0
-127 -51 124 0
24 33 -110 0
-2 -119 88 0
117 57 -21 0
-135 -36 134 0
81 -96 -7 0
108 69 -22 0
-8 140 -95 0
-14 28 -22 0
144 41 63 0
-108 -1 146 0
-49 -148 4 0
-48 29 144 0
31 -76 -27 0
-28 -144 -1 0
132 -49 -106 0
37 -117 57 0
-46 7 -127 0
-67 6 61 0
-90 85 144 0
50 58 -70 0
-29 15 -135 0
-139 83 9 0
102 -37 -138 0
72 -79 -140 0
-47 -70 -102 0
-34 -16 138 0
88 26 8 0
117 -128 74 0
84 112 -72 0
-133 150 -64 0
-40 90 -103 0
74 -18 90 0
15 -4 135 0
51 -38 143 0
-32 12 -19 0
26 138 -40 0
-27 143 -96 0
-39 -31 145 0
22 11 -139 0
71 8 106 0
-147 125 -60 0
99 -142 -77 0
28 52 -146 0
-132 40 -91 0
8 127 -111 0
74 104 -24 0
-146 96 -5 0
-71 117 109 0
-11 -140 56 0
-127 40 73 0
-132 -42 105 0
66 17 110 0
-54 -41 49 0
-124 -100 109 0
-108 110 -115 0
-94 -83 -102 0
-150 108 127 0
66 -72 -36 0
x -2 -5 -7 8 -9 13 -14 15 -17 -18 -20 -21 -22 -25 30 -36 -37 -38 40 42 -44 -45 47 -51 53 -54 57 -59 60 66 67 -69 70 74 79 80 82 -84 85 86 -87 89 -90 91 92 93 -94 -95 96 102 -104 -108 109 111 113 114 -115 116 -118 123 125 129 -131 -134 -135 137 139 -140 141 143 144 -145 146 -147 149 0
x 1 2 -3 -4 5 6 7 10 -11 -12 -14 -15 -16 21 22 -24 -26 28 -29 -33 -34 -36 37 -39 42 -46 49 50 51 52 -53 -56 -58 -59 -60 61 -62 -65 -67 -68 69 -73 -74 -75 78 -79 84 -86 -88 -89 94 100 108 -111 113 -114 -115 116 117 -119 -120 -122 123 125 127 -128 129 132 -134 135 -136 140 142 -143 -144 145 -147 150 0
x -2 7 12 18 19 -20 -25 28 -30 31 -33 34 37 38 39 40 -41 -43 -44 -45 -50 -51 -53 -55 -57 -60 61 64 -65 66 67 -69 72 73 77 78 86 89 92 93 -97 102 -107 108 109 -112 114 -115 -116 -117 121 123 124 125 129 -132 137 -138 140 143 -144 145 -146 147 148 150 0
x -1 -3 -4 -5 6 -7 9 -10 11 -14 -16 -17 -18 -20 21 22 23 25 26 -27 -28 31 36 37 -40 -43 -45 -48 49 -50 51 53 54 -61 -62 -63 -64 -66 -68 -70 71 72 -73 -76 -79 81 -85 -88 90 -93 96 -100 -101 -102 -105 -106 107 -108 -109 -113 -116 118 119 120 -121 -122 -124 -125 132 133 134 136 137 139 140 -141 -145 148 150 0
x -1 -4 8 -10 12 14 -15 -16 17 18 -20 -21 27 -33 37 -38 44 -46 -49 -50 -51 -53 -57 58 59 62 65 67 69 70 71 74 -79 80 81 -82 85 -86 -87 -89 -92 -97 -99 101 -103 105 107 -108 109 -113 115 -116 117 -119 122 -125 129 130 131 -133 134 135 -139 -141 -142 149 -150 0
x -5 -7 -11 -12 -13 14 15 -17 -23 -24 -25 28 29 -34 -35 -37 38 39 43 46 47 -48 50 51 53 55 56 57 -61 -65 66 67 69 73 -75 76 -84 -85 -86 88 89 -91 92 93 -95 98 -101 102 103 -107 110 -111 115 -116 117 -120 123 124 -125 127 129 131 -132 -133 135 136 -143 -145 -149 -150 0
x 2 8 10 11 12 -13 14 17 19 -20 -24 25 -27 28 -32 -33 34 36 37 -40 43 44 -47 -48 49 -52 -54 55 56 -58 -62 -63 -64 -68 -73 76 -77 -81 -83 -85 87 88 -90 -91 92 94 95 -96 -98 -99 102 -104 -105 -106 107 -110 115 118 121 -122 123 -127 -129 130 -133 -135 136 139 -140 -142 143 -145 -146 148 0
x 1 2 -6 7 8 10 14 16 17 -18 -20 21 23 24 25 26 27 32 33 -36 38 39 -40 -41 43 46 49 53 -55 56 -57 -61 65 68 -70 71 -73 -78 -80 82 83 84 86 -87 -90 -91 -92 95 -96 -97 98 102 103 -104 106 -107 109 111 113 117 -118 -119 123 124 -128 -129 132 -133 -139 142 144 145 148 150 0
x 2 -3 -5 6 10 -11 -12 17 -18 19 20 26 -29 32 33 -34 37 40 -41 46 49 -51 54 55 56 58 62 66 67 68 -70 74 75 76 -79 80 -81 82 -83 84 -88 -90 91 -94 95 -96 99 -102 103 -105 -109 111 115 -116 -119 -122 127 132 133 -134 -135 -137 138 -141 -143 -144 -147 149 -150 0
x 1 2 -3 -4 -5 -6 9 -11 12 -14 16 -17 18 19 20 -21 -22 28 -29 31 -32 -35 36 -37 38 40 42 -44 -45 -47 48 -51 -52 54 -55 -59 -61 62 69 -76 77 -80 -81 82 -84 86 89 90 93 95 -97 -99 -100 -103 104 107 -108 109 112 114 -115 -116 -118 119 -123 124 -127 -129 133 -134 -135 136 -140 -143 144 147 149 0
x -1 5 6 7 -8 11 -12 17 -19 27 28 -31 -33 34 38 41 43 47 49 50 52 -54 57 58 59 -61 -62 -63 64 65 66 67 69 -71 72 77 78 79 -84 86 90 -91 -97 -100 -101 102 103 104 -107 108 109 -111 113 -114 116 117 -125 -126 128 -129 -131 132 134 -136 -137 138 144 145 -147 -150 0
x 1 -3 4 6 -7 -8 9 -10 11 -12 -17 23 24 25 26 30 -31 -32 33 36 37 39 -47 -48 49 51 -52 53 55 -56 57 58 60 -62 63 -64 66 -67 69 70 -74 75 78 -79 -80 -81 82 84 88 90 -92 93 97 100 102 -106 -107 -108 110 -111 -113 -123 -124 125 126 -127 -131 -133 -136 -137 138 142 143 144 -146 -150 0
x -3 4 5 -10 -18 -19 20 -23 -24 30 32 -33 36 -37 -38 40 -41 -42 -44 -45 -46 47 -50 51 -52 -53 54 55 -58 63 64 -65 -67 -68 70 71 -72 -76 77 -79 -80 81 84 85 -86 -87 -88 90 -93 -95 97 -99 -102 -104 105 106 107 -114 -117 118 -123 -124 129 130 -132 -133 134 135 -136 -139 -142 143 144 146 -148 150 0
x 1 3 8 -12 -14 -15 20 -21 22 -23 24 25 27 -28 -31 32 -33 -39 43 -44 -46 47 50 51 -52 54 55 -56 57 -58 59 60 -63 -64 -65 -68 -69 70 -73 76 78 81 -82 -84 -85 88 -90 -91 93 94 -95 -99 -102 103 -105 106 107 109 -112 113 114 117 121 122 -123 -129 -130 -131 -132 133 -134 -137 144 -146 147 148 0
x -2 -5 6 -11 12 -13 14 15 18 -20 -21 22 -23 -24 25 29 -30 -31 -34 35 -36 -40 -42 44 -45 46 47 48 -56 -57 58 -59 61 -62 64 -65 -68 70 -72 -73 -76 -79 81 82 -84 87 -90 93 98 -101 102 -104 105 107 -109 -110 111 -113 119 120 121 122 123 -124 -127 -128 130 -132 137 138 -139 140 -142 143 144 -147 148 -149 0
x -1 3 4 6 -9 10 11 -12 13 -24 25 -26 -27 30 -31 -32 -34 35 36 37 38 -39 44 -45 46 -48 53 54 -56 -58 59 64 -65 66 68 69 70 72 -74 75 86 -87 -93 96 99 -101 -104 -105 107 109 111 -112 -114 -115 117 118 -121 -122 123 -125 129 130 131 132 141 146 148 0
x 2 5 6 8 10 11 -13 -14 15 -18 19 -20 -24 25 -26 -27 -33 35 -38 39 42 44 45 46 -51 53 -54 55 -57 60 -62 -64 -65 -67 -70 72 -73 74 -75 76 77 -78 86 -87 89 -91 93 -97 -98 99 -100 -102 103 -109 110 -111 -112 -114 118 120 -121 -122 -124 -128 129 -130 132 133 135 136 137 -140 -144 145 -148 0
x 2 3 5 6 -8 -9 -10 -11 12 -15 16 -19 -20 -21 22 -31 -32 35 -38 39 -41 -43 -44 54 -58 60 62 63 64 -66 -68 70 -71 -72 73 -76 -79 -80 82 -84 85 87 -88 -90 92 94 97 98 99 -101 104 -105 -106 -107 114 115 120 -122 123 -125 -126 -127 -134 -136 -137 -141 142 145 146 147 149 150 0
x -4 -6 7 -8 -9 11 17 -18 22 25 -26 27 29 32 -34 -35 -36 -38 -40 41 -42 43 -46 48 -49 -50 52 -55 -56 -58 -59 -65 66 67 -68 70 -71 -72 -73 -75 -77 79 -80 -81 83 -84 85 88 92 -93 -94 96 -99 100 102 -105 -108 -109 -110 -111 -113 -114 117 -120 -121 122 124 125 -127 -129 -130 -131 -134 135 -136 -138 -140 -141 142 143 146 148 150 0
x 7 -8 -11 -12 13 -15 16 17 -19 21 22 23 -24 26 -28 -29 30 -33 -35 -36 38 -40 42 43 -44 -47 48 51 52 -56 -57 -59 64 -65 66 68 69 70 -72 74 76 78 79 -80 84 85 87 -91 93 94 -95 -101 -102 -104 -105 -106 -110 114 -115 117 118 119 -120 121 -122 -125 126 129 -132 -135 136 -137 -138 140 -141 -144 -145 147 -148 0
x -4 5 6 9 -10 12 13 15 17 20 -22 24 -25 28 35 -36 -38 40 -44 -46 -47 48 -50 -53 -54 56 60 61 -62 64 67 -69 70 74 -75 -77 -79 82 83 84 86 -87 -88 94 -97 -99 -100 -102 -108 -112 113 117 118 -119 -123 125 -126 -127 -128 132 133 136 137 138 -140 141 -142 -144 148 149 150 0
x 2 -3 4 -6 7 8 9 10 -11 16 -17 -19 21 -22 25 -26 30 33 37 -39 -44 45 47 -50 -56 62 -64 65 -71 -76 -77 79 -80 84 -85 -86 -88 89 -90 -91 -96 -98 99 -100 101 102 104 -105 -106 -107 -111 -112 114 115 -117 121 122 -123 -124 -125 126 127 134 135 -137 -138 139 -144 -146 148 -150 0
x 1 2 4 5 -6 7 8 -10 -12 -14 -16 -18 -19 21 22 -23 26 28 -29 -31 32 33 -34 -37 38 -39 -42 43 44 -46 47 -50 -52 53 -55 -57 -59 60 -61 65 67 70 -72 -74 76 80 81 -83 -84 85 -86 -87 88 -89 -92 97 100 102 103 -105 108 109 -110 111 114 -116 -117 -118 119 -120 -122 -123 -126 130 131 136 -137 143 144 -145 -146 -148 149 0
x -4 -5 7 -9 11 13 17 19 20 -21 -22 23 28 -32 -33 34 -36 -39 43 -47 -53 -57 58 59 60 -62 63 -64 65 67 -68 -69 70 -71 72 -75 76 77 78 79 82 -83 -84 85 -86 89 91 92 94 -96 -98 101 103 104 -105 -106 -108 109 -111 -116 118 -120 121 -123 124 -127 130 131 132 -137 -140 -141 -142 143 -146 147 148 -150 0
x -4 -7 -9 -12 -16 20 -22 -23 -26 28 -29 -30 31 -32 33 -34 38 -43 47 -48 -49 -50 -52 54 -60 61 62 -67 69 71 -72 73 76 -78 79 -80 82 84 85 86 87 89 -91 92 -93 -96 97 -98 -99 -102 -103 104 -106 -107 108 110 -115 116 118 -122 123 124 -125 -129 -130 132 135 -137 139 -140 -144 146 148 149 -150 0
x -1 2 5 -9 11 -12 -14 16 17 -19 20 -21 -23 -27 28 29 -33 37 38 41 43 45 -46 -49 50 -53 -54 60 61 -62 63 64 67 69 -70 75 -76 78 80 -86 87 90 91 94 -95 96 -102 -103 -104 107 -109 -110 112 -115 -120 -126 127 128 130 132 135 136 139 -141 -142 143 144 -147 -148 -149 0
x -1 4 5 7 -12 -13 15 -16 17 -19 20 -23 24 -25 27 28 29 31 -34 -36 38 -40 41 42 49 50 51 -52 -55 -57 59 61 -64 66 -68 -72 -73 -75 76 -79 80 83 84 86 -89 -90 -93 94 -95 -99 104 -105 -106 -109 -111 -112 -114 -117 -118 120 121 122 124 -125 -127 -128 -130 131 -133 135 -136 -139 140 141 142 143 144 145 146 0
x 2 -3 4 10 13 -14 -15 16 -19 20 -21 23 -26 32 -34 35 36 38 -43 47 48 -49 -50 -53 -54 56 59 -60 -61 62 64 -70 -73 75 -76 -78 81 82 -83 85 87 88 -91 -94 95 -96 -99 -101 102 104 -105 107 109 113 -115 116 -117 118 119 -121 -122 -123 -124 127 128 132 -133 -134 -135 -139 -142 -148 0
x -1 2 -6 -11 -12 15 -16 -17 -20 -25 -26 -27 -33 -35 36 37 -38 -39 -41 42 -43 44 -45 46 -50 52 53 -54 58 -59 -62 63 64 -65 -69 71 -72 -75 76 81 -85 86 -92 93 95 97 98 -99 100 101 -102 -104 -105 106 -111 -115 118 -124 -126 127 -128 -131 134 135 137 141 142 -143 -144 145 146 148 -150 0
x 4 -5 -8 9 -11 12 -14 -16 -17 18 19 -21 -22 24 -25 26 -30 31 -32 35 -36 -37 -38 -41 42 43 -44 -46 -51 -55 59 -62 63 -66 -69 -71 -72 -75 79 81 -82 -84 -86 -87 -88 -89 94 -96 -97 -99 102 -104 106 108 -112 113 -114 -115 -116 117 -118 -119 -120 -122 -123 -125 -126 127 -128 129 130 -131 -132 133 134 -136 -137 -139 -140 141 145 -146 147 148 -149 0
x -3 -4 -5 8 -12 -15 -17 -22 23 -25 -28 29 30 -33 35 -38 -40 -42 45 -46 -47 -49 50 52 -60 63 -64 65 -66 68 -69 72 -73 75 77 -78 -80 -81 82 84 85 86 87 -88 -90 -91 -92 96 97 -99 100 -104 106 -107 -112 -113 -115 -116 120 -121 123 124 -125 126 128 -129 -130 132 134 -138 -139 140 -142 143 -146 -149 150 0
x -2 3 5 -6 -8 -9 13 -16 -17 -18 -23 -25 26 31 32 35 36 -37 38 -40 43 45 46 -47 -48 -49 52 53 -54 55 58 59 -61 62 64 65 -67 68 -70 71 75 77 80 81 -84 85 86 -88 89 91 92 93 94 -99 -101 -103 107 -108 112 -115 -116 -117 118 -121 124 -127 128 -132 -133 136 137 -140 145 -146 -148 150 0
x -2 -3 -5 -6 -13 16 -17 -19 -20 -21 22 23 -24 -26 30 33 34 -35 -38 -48 -49 -58 -61 62 65 66 -67 -68 -71 72 -74 -75 -78 81 -82 83 -84 85 -87 -88 -90 91 93 96 97 99 100 -102 108 -111 -113 115 -116 -117 118 119 -121 122 127 128 129 130 -132 -133 -134 135 138 139 -144 146 -147 150 0
x 2 3 7 -8 9 11 12 -15 -18 -22 -23 -25 27 28 29 -32 35 37 -42 43 -44 46 47 -48 -49 50 51 -56 65 -66 -67 68 -72 -76 -82 83 84 86 -87 88 89 -90 -94 99 100 -102 -103 108 -109 -113 120 -121 -122 -123 -124 126 -127 130 -132 -133 -134 -136 139 -142 148 -149 -150 0
x 3 6 -7 -10 11 12 -17 18 -20 -21 22 24 -25 26 -28 29 31 33 -35 -36 -37 40 42 -44 45 -46 47 50 -51 -52 -53 56 -57 -59 -60 -61 62 66 67 69 70 72 77 -79 85 86 87 92 93 -94 96 -97 -99 -104 -106 -108 -113 114 -117 120 123 -124 -125 -128 -130 -131 134 135 140 -141 144 -146 147 148 -149 -150 0
x 1 -2 8 -19 -21 -22 23 -25 -26 27 29 -33 -35 -39 40 41 42 -43 45 47 -48 -49 -52 53 54 55 58 59 62 64 69 -72 77 -80 81 -84 85 -87 -90 -92 96 -97 -98 102 105 107 -108 109 110 -113 114 115 -116 -117 120 -123 -124 -127 131 -132 -135 -138 -140 -143 -145 150 0
x 1 -3 4 -9 -10 -11 15 -16 17 18 -25 -28 30 32 -33 -36 37 43 44 46 48 49 -50 -51 -55 56 -57 59 -60 -64 67 68 69 70 75 77 -79 -80 -82 83 -85 -89 -91 93 94 97 -99 101 -102 106 109 -110 -112 -114 -115 116 117 119 -120 -121 -122 -123 124 125 -126 -128 -130 -131 -132 135 136 142 147 150 0
x 1 -4 -5 -6 -8 9 -11 12 13 14 -16 17 23 -24 -25 -27 -28 29 30 -37 40 41 -42 -45 49 52 -53 56 59 -60 -69 -70 -72 -73 77 78 -79 -83 -84 -85 -87 88 89 -95 96 -99 102 107 -110 -114 115 117 -119 120 123 -124 -128 -132 -133 -136 -138 -143 -144 148 149 0
x 1 5 -12 -13 -15 19 20 21 -23 25 27 -28 36 37 -38 39 40 41 42 -43 -44 -46 51 -52 -53 -54 57 -58 -61 -64 -67 -70 -74 -75 -77 -78 -79 -81 82 -84 -85 -88 90 92 -93 95 96 -99 -101 103 -106 -107 110 113 114 -116 121 122 -124 125 128 129 -131 134 135 -137 -138 139 -144 -146 -149 150 0
x -1 -2 4 -8 11 12 -13 14 -15 -17 19 20 -23 24 26 -29 -32 -33 -38 -39 40 41 -42 -45 -46 47 50 51 -52 -53 54 -56 61 63 -64 -65 66 -69 -72 -74 -75 -77 -79 -83 -85 88 -89 -90 -91 -92 -93 -94 -96 -97 -98 -99 -100 101 -104 106 -107 -112 113 114 -115 117 118 120 121 -122 -124 125 -126 -127 -130 131 -134 135 -137 -139 142 144 149 150 0
x 2 3 -5 -6 7 -8 -9 15 21 23 -24 25 -28 -33 -35 36 -38 41 -43 44 -45 -48 -51 -52 55 56 57 59 -60 -62 -67 70 73 -74 77 81 82 85 87 88 -89 -90 -92 -100 101 -103 -104 -106 107 -109 -110 111 115 116 -119 120 -121 123 -127 128 131 132 -139 143 145 146 147 148 0
x 1 3 10 -11 -14 -16 18 19 21 -24 -26 -27 -29 -32 36 -38 39 46 47 49 51 -52 53 55 59 64 -66 -68 69 75 80 -81 -83 86 88 -89 -91 -92 -93 94 -97 98 99 -101 -102 -103 -104 105 108 111 -112 -117 -118 -120 -125 131 136 137 -139 -140 142 -144 146 -147 148 149 0
x 5 6 7 -8 9 -10 -12 19 -21 -22 25 26 -28 -30 32 -33 35 -36 39 40 43 -44 48 -50 51 52 -53 -55 56 57 -58 -59 -60 63 64 -65 -66 -67 72 -74 75 -76 78 79 -80 -81 83 84 87 -89 -90 92 94 -95 96 97 99 101 102 -106 -107 109 -110 111 112 -113 -114 -115 116 -117 118 119 -121 -125 126 127 -128 129 130 -131 -132 -133 -134 136 -139 140 141 -143 145 146 -147 -148 0
x 1 -2 7 -10 11 -15 17 19 23 24 -25 27 -30 35 36 -37 39 42 43 44 -47 50 51 -55 56 57 -59 -60 -61 -62 63 67 68 -69 70 71 74 75 77 -80 81 85 86 87 89 90 -91 -93 -96 98 -99 100 101 102 104 106 -107 -108 110 -111 113 -115 -116 -118 -119 -122 123 125 127 -128 -129 -135 136 -137 139 -140 -141 142 143 145 -146 147 -148 -150 0
x -4 7 -8 -9 12 14 -17 -18 19 20 -21 -23 -28 30 31 32 -33 38 -40 41 -42 -49 -50 -54 -55 -59 60 -64 65 67 68 -70 -71 72 -75 -77 -81 -83 89 92 93 95 96 98 -100 -103 104 106 110 111 -113 114 -117 121 124 -126 131 -134 135 -141 142 -145 146 -148 -150 0
x -2 3 -6 -8 -17 -18 -19 -20 21 -22 -24 -25 -27 -28 31 -33 34 -35 -37 38 39 40 45 48 51 53 -55 57 -59 60 -61 62 -64 -65 66 -67 69 -70 -71 73 75 76 77 -78 79 -80 -81 84 -85 90 -91 -92 93 94 -95 -96 97 100 101 103 105 109 110 111 115 120 -123 -125 -128 130 131 132 -133 134 135 136 139 -142 147 -148 -150 0
x 1 -3 -4 -8 -9 13 -14 16 17 -19 -21 -23 -28 32 -34 36 -38 39 41 43 44 -46 -49 -51 53 55 57 -59 61 63 64 -66 -71 -74 -75 -77 -78 79 80 -84 -89 91 -92 -94 96 98 99 -100 -103 104 105 106 107 -110 -111 -112 113 -115 -116 -120 121 123 124 125 126 128 131 -132 -135 136 -141 -143 145 -146 147 149 0
x -2 6 -7 10 12 -16 17 -19 21 -22 28 29 31 -32 -33 35 36 37 -38 -39 -41 -42 -48 53 -55 59 60 62 -63 -64 66 67 -68 69 -70 -71 -73 -74 76 77 -79 80 81 83 84 85 86 -87 -88 -90 91 93 -94 -95 -96 101 102 106 -108 -110 117 118 -119 -120 122 -123 124 128 131 -133 -135 136 137 -138 139 140 -141 -142 -143 -144 -145 -147 -148 -150 0
x -1 -2 5 -6 -7 -9 -11 13 -14 -15 19 -20 -21 23 -28 29 -32 -34 35 -36 40 -45 50 -51 -53 -55 57 58 -60 61 64 67 -68 69 70 72 -74 76 -77 79 -80 82 -83 -84 -85 -86 87 -88 92 95 -98 99 -103 106 109 110 111 -115 116 117 -122 -123 -124 -131 -132 -134 135 -136 -137 139 0
x -2 4 5 -6 -7 8 -9 -10 -11 -12 -14 16 17 18 -21 -22 -31 32 37 -38 -41 42 48 -49 53 55 56 59 60 -61 -63 65 -68 -69 -70 -71 72 75 -79 -80 -82 83 -84 86 87 92 -95 96 -98 -101 -112 -113 -116 -117 123 124 -125 128 131 132 -134 -135 136 -137 -138 -139 -140 144 -145 146 -147 0
x 3 -7 -9 12 -13 14 -15 16 18 19 -22 30 -31 35 -37 39 40 -41 -43 49 50 -53 55 -56 57 59 60 -62 63 64 -69 70 -71 -72 -74 75 76 78 81 -82 84 -85 86 -87 88 -90 91 93 95 97 98 100 102 104 105 -106 -107 108 109 -110 -117 -118 -120 -123 124 -125 -126 -127 133 -135 -139 140 141 -144 -145 147 -149 0
x 2 -4 7 8 9 -15 22 23 -24 25 26 27 -29 -30 -31 -32 33 34 35 -36 -37 -39 -42 -44 -45 46 -47 49 50 -55 -58 -62 63 -68 -70 -72 73 78 -79 -82 85 -87 -88 -89 90 91 -95 -99 -100 106 107 -108 110 -112 -114 118 124 125 127 128 -133 -136 -138 139 142 -143 144 145 148 -149 150 0
x 2 -3 4 5 6 -7 8 9 -11 -12 13 -15 21 24 25 -27 33 -34 -38 40 -42 43 45 -48 -49 -52 -57 -59 -60 63 -64 65 -66 67 68 69 -72 73 74 -76 77 -78 -79 80 -81 82 83 84 -89 -90 92 93 -94 95 -97 99 -100 101 102 104 105 -107 -108 110 112 -113 -115 116 117 -120 121 122 -125 126 -128 -129 -130 131 137 138 139 -141 -143 144 146 -147 148 -150 0
x 1 -3 4 6 -8 9 -11 12 20 21 22 24 -25 26 30 37 -39 -40 -42 -44 -46 48 49 50 56 60 -62 -65 -67 -71 -72 76 -78 79 80 83 -85 87 88 89 -90 -91 92 94 -95 98 101 -102 -103 105 109 110 112 113 117 -119 -120 -122 -123 124 -126 129 131 -132 133 134 135 139 142 143 -144 145 149 150 0
x 1 4 -6 7 -8 10 19 23 -26 27 -29 -30 31 -32 33 -34 -35 36 39 41 42 44 47 50 51 52 54 55 56 58 -60 63 -66 67 -68 -69 70 -71 81 82 83 -86 87 -88 -94 -96 -98 -99 100 105 106 107 -108 111 113 114 115 -118 119 -120 121 125 -126 -127 -128 -134 -135 -136 -137 139 -140 -144 -146 0
x -1 2 -4 5 -6 -8 -9 10 15 16 20 21 22 23 -24 -26 -27 -29 -30 -32 33 -35 -36 -37 39 -41 42 -46 47 -51 52 54 58 -60 -64 -66 -68 -70 -71 -74 -75 78 80 -81 -82 -85 -87 90 -93 -95 96 -97 98 99 101 102 106 107 -110 113 -114 116 117 118 -119 120 -122 -123 124 127 -129 -131 -133 -135 -137 139 140 -142 -145 147 -148 -150 0
x 2 3 -5 -7 -8 -11 14 17 18 23 -26 30 -31 -34 -35 -39 -40 -41 -42 43 44 -45 -54 -56 -58 -59 -61 62 -63 64 66 -69 -71 73 74 76 -79 -80 -82 -83 -84 85 86 -87 -88 89 -90 -92 94 95 96 98 102 -105 107 110 -111 112 -113 114 -116 119 120 122 123 126 -128 -130 -132 -133 135 -136 137 -138 -139 140 141 143 146 -148 0
x 1 -2 3 -4 -5 -6 -8 14 -15 -16 -17 19 -21 -22 24 -25 -26 -28 29 30 33 35 36 -38 39 -43 45 -46 -47 48 -49 -50 52 53 55 56 59 -63 -64 -66 -67 69 71 72 -74 -80 -81 -83 84 -86 87 -89 90 -91 95 -96 -97 100 102 103 -104 -106 110 -114 -116 118 119 -120 -121 122 -124 -125 126 127 128 -129 -130 132 -133 134 -135 -136 -137 145 -150 0
x -1 2 3 -7 11 -14 -15 -17 18 -19 20 -27 -29 32 33 34 -35 -38 -41 -42 43 -44 -46 -47 49 50 51 53 54 57 -58 60 63 -64 -66 -67 70 72 75 -76 79 80 -85 -86 88 -89 90 -91 92 94 95 -97 99 -100 -102 -103 -106 107 -109 -110 -111 115 -117 119 120 -121 -124 126 127 128 -130 131 -134 135 -139 143 146 147 -149 0
x 2 -6 7 -8 -17 20 -21 22 -23 24 26 -28 31 -32 33 35 -39 -42 -44 46 -48 49 -51 -52 -55 58 61 62 63 -66 68 -69 -70 -71 -72 -76 -77 79 -84 88 89 90 -92 -93 -96 -99 -105 107 108 109 111 -112 113 114 -116 124 -125 128 -129 -130 -131 -132 -133 -134 135 139 -140 149 0
